\ Model matlab
\ LP format - for model browsing. Use MPS format to capture full model detail.
Minimize
  - 400 COM_state_49 + 0 T_1 + 0 T_2 + 0 T_3 + 0 T_4 + 0 T_5 + 0 T_6 + 0 T_7
   + 0 T_8 + 0 T_9 + 0 T_10 + 0 T_11 + 0 T_12 + 0 T_13 + 0 T_14 + 0 T_15
   + 0 T_16 + 0 T_17 + 0 T_18 + 0 T_19 + 0 T_20 + 0 T_21 + 0 T_22 + 0 T_23
   + 0 T_24 + 0 T_25 + 0 T_26 + 0 T_27 + 0 T_28 + 0 T_29 + 0 T_30 + 0 T_31
   + 0 T_32 + 0 T_33 + 0 T_34 + 0 T_35 + 0 T_36 + 0 T_37 + 0 T_38 + 0 T_39
   + 0 T_40 + 0 T_41 + 0 T_42 + 0 T_43 + 0 T_44 + 0 T_45 + 0 T_46 + 0 T_47
   + 0 T_48 + 0 T_49 + 0 T_50 + 0 T_51 + 0 T_52 + 400 Constant + [
   20 COM_state_1 ^2 - 40 COM_state_1 * COM_state_5 + 20 COM_state_2 ^2
   - 40 COM_state_2 * COM_state_6 + 20 COM_state_3 ^2
   - 40 COM_state_3 * COM_state_7 + 20 COM_state_4 ^2
   - 40 COM_state_4 * COM_state_8 + 40 COM_state_5 ^2
   - 40 COM_state_5 * COM_state_9 + 40 COM_state_6 ^2
   - 40 COM_state_6 * COM_state_10 + 40 COM_state_7 ^2
   - 40 COM_state_7 * COM_state_11 + 40 COM_state_8 ^2
   - 40 COM_state_8 * COM_state_12 + 40 COM_state_9 ^2
   - 40 COM_state_9 * COM_state_13 + 40 COM_state_10 ^2
   - 40 COM_state_10 * COM_state_14 + 40 COM_state_11 ^2
   - 40 COM_state_11 * COM_state_15 + 40 COM_state_12 ^2
   - 40 COM_state_12 * COM_state_16 + 40 COM_state_13 ^2
   - 40 COM_state_13 * COM_state_17 + 40 COM_state_14 ^2
   - 40 COM_state_14 * COM_state_18 + 40 COM_state_15 ^2
   - 40 COM_state_15 * COM_state_19 + 40 COM_state_16 ^2
   - 40 COM_state_16 * COM_state_20 + 40 COM_state_17 ^2
   - 40 COM_state_17 * COM_state_21 + 40 COM_state_18 ^2
   - 40 COM_state_18 * COM_state_22 + 40 COM_state_19 ^2
   - 40 COM_state_19 * COM_state_23 + 40 COM_state_20 ^2
   - 40 COM_state_20 * COM_state_24 + 40 COM_state_21 ^2
   - 40 COM_state_21 * COM_state_25 + 40 COM_state_22 ^2
   - 40 COM_state_22 * COM_state_26 + 40 COM_state_23 ^2
   - 40 COM_state_23 * COM_state_27 + 40 COM_state_24 ^2
   - 40 COM_state_24 * COM_state_28 + 40 COM_state_25 ^2
   - 40 COM_state_25 * COM_state_29 + 40 COM_state_26 ^2
   - 40 COM_state_26 * COM_state_30 + 40 COM_state_27 ^2
   - 40 COM_state_27 * COM_state_31 + 40 COM_state_28 ^2
   - 40 COM_state_28 * COM_state_32 + 40 COM_state_29 ^2
   - 40 COM_state_29 * COM_state_33 + 40 COM_state_30 ^2
   - 40 COM_state_30 * COM_state_34 + 40 COM_state_31 ^2
   - 40 COM_state_31 * COM_state_35 + 40 COM_state_32 ^2
   - 40 COM_state_32 * COM_state_36 + 40 COM_state_33 ^2
   - 40 COM_state_33 * COM_state_37 + 40 COM_state_34 ^2
   - 40 COM_state_34 * COM_state_38 + 40 COM_state_35 ^2
   - 40 COM_state_35 * COM_state_39 + 40 COM_state_36 ^2
   - 40 COM_state_36 * COM_state_40 + 40 COM_state_37 ^2
   - 40 COM_state_37 * COM_state_41 + 40 COM_state_38 ^2
   - 40 COM_state_38 * COM_state_42 + 40 COM_state_39 ^2
   - 40 COM_state_39 * COM_state_43 + 40 COM_state_40 ^2
   - 40 COM_state_40 * COM_state_44 + 40 COM_state_41 ^2
   - 40 COM_state_41 * COM_state_45 + 40 COM_state_42 ^2
   - 40 COM_state_42 * COM_state_46 + 40 COM_state_43 ^2
   - 40 COM_state_43 * COM_state_47 + 40 COM_state_44 ^2
   - 40 COM_state_44 * COM_state_48 + 40 COM_state_45 ^2
   - 40 COM_state_45 * COM_state_49 + 40 COM_state_46 ^2
   - 40 COM_state_46 * COM_state_50 + 40 COM_state_47 ^2
   - 40 COM_state_47 * COM_state_51 + 40 COM_state_48 ^2
   - 40 COM_state_48 * COM_state_52 + 220 COM_state_49 ^2
   + 220 COM_state_50 ^2 + 220 COM_state_51 ^2 + 220 COM_state_52 ^2
   + 20 Leg_state_1 ^2 - 40 Leg_state_1 * Leg_state_17 + 20 Leg_state_2 ^2
   - 40 Leg_state_2 * Leg_state_18 + 20 Leg_state_3 ^2
   - 40 Leg_state_3 * Leg_state_19 + 20 Leg_state_4 ^2
   - 40 Leg_state_4 * Leg_state_20 + 20 Leg_state_5 ^2
   - 40 Leg_state_5 * Leg_state_21 + 20 Leg_state_6 ^2
   - 40 Leg_state_6 * Leg_state_22 + 20 Leg_state_7 ^2
   - 40 Leg_state_7 * Leg_state_23 + 20 Leg_state_8 ^2
   - 40 Leg_state_8 * Leg_state_24 + 20 Leg_state_9 ^2
   - 40 Leg_state_9 * Leg_state_25 + 20 Leg_state_10 ^2
   - 40 Leg_state_10 * Leg_state_26 + 20 Leg_state_11 ^2
   - 40 Leg_state_11 * Leg_state_27 + 20 Leg_state_12 ^2
   - 40 Leg_state_12 * Leg_state_28 + 20 Leg_state_13 ^2
   - 40 Leg_state_13 * Leg_state_29 + 20 Leg_state_14 ^2
   - 40 Leg_state_14 * Leg_state_30 + 20 Leg_state_15 ^2
   - 40 Leg_state_15 * Leg_state_31 + 20 Leg_state_16 ^2
   - 40 Leg_state_16 * Leg_state_32 + 40 Leg_state_17 ^2
   - 40 Leg_state_17 * Leg_state_33 + 40 Leg_state_18 ^2
   - 40 Leg_state_18 * Leg_state_34 + 40 Leg_state_19 ^2
   - 40 Leg_state_19 * Leg_state_35 + 40 Leg_state_20 ^2
   - 40 Leg_state_20 * Leg_state_36 + 40 Leg_state_21 ^2
   - 40 Leg_state_21 * Leg_state_37 + 40 Leg_state_22 ^2
   - 40 Leg_state_22 * Leg_state_38 + 40 Leg_state_23 ^2
   - 40 Leg_state_23 * Leg_state_39 + 40 Leg_state_24 ^2
   - 40 Leg_state_24 * Leg_state_40 + 40 Leg_state_25 ^2
   - 40 Leg_state_25 * Leg_state_41 + 40 Leg_state_26 ^2
   - 40 Leg_state_26 * Leg_state_42 + 40 Leg_state_27 ^2
   - 40 Leg_state_27 * Leg_state_43 + 40 Leg_state_28 ^2
   - 40 Leg_state_28 * Leg_state_44 + 40 Leg_state_29 ^2
   - 40 Leg_state_29 * Leg_state_45 + 40 Leg_state_30 ^2
   - 40 Leg_state_30 * Leg_state_46 + 40 Leg_state_31 ^2
   - 40 Leg_state_31 * Leg_state_47 + 40 Leg_state_32 ^2
   - 40 Leg_state_32 * Leg_state_48 + 40 Leg_state_33 ^2
   - 40 Leg_state_33 * Leg_state_49 + 40 Leg_state_34 ^2
   - 40 Leg_state_34 * Leg_state_50 + 40 Leg_state_35 ^2
   - 40 Leg_state_35 * Leg_state_51 + 40 Leg_state_36 ^2
   - 40 Leg_state_36 * Leg_state_52 + 40 Leg_state_37 ^2
   - 40 Leg_state_37 * Leg_state_53 + 40 Leg_state_38 ^2
   - 40 Leg_state_38 * Leg_state_54 + 40 Leg_state_39 ^2
   - 40 Leg_state_39 * Leg_state_55 + 40 Leg_state_40 ^2
   - 40 Leg_state_40 * Leg_state_56 + 40 Leg_state_41 ^2
   - 40 Leg_state_41 * Leg_state_57 + 40 Leg_state_42 ^2
   - 40 Leg_state_42 * Leg_state_58 + 40 Leg_state_43 ^2
   - 40 Leg_state_43 * Leg_state_59 + 40 Leg_state_44 ^2
   - 40 Leg_state_44 * Leg_state_60 + 40 Leg_state_45 ^2
   - 40 Leg_state_45 * Leg_state_61 + 40 Leg_state_46 ^2
   - 40 Leg_state_46 * Leg_state_62 + 40 Leg_state_47 ^2
   - 40 Leg_state_47 * Leg_state_63 + 40 Leg_state_48 ^2
   - 40 Leg_state_48 * Leg_state_64 + 40 Leg_state_49 ^2
   - 40 Leg_state_49 * Leg_state_65 + 40 Leg_state_50 ^2
   - 40 Leg_state_50 * Leg_state_66 + 40 Leg_state_51 ^2
   - 40 Leg_state_51 * Leg_state_67 + 40 Leg_state_52 ^2
   - 40 Leg_state_52 * Leg_state_68 + 40 Leg_state_53 ^2
   - 40 Leg_state_53 * Leg_state_69 + 40 Leg_state_54 ^2
   - 40 Leg_state_54 * Leg_state_70 + 40 Leg_state_55 ^2
   - 40 Leg_state_55 * Leg_state_71 + 40 Leg_state_56 ^2
   - 40 Leg_state_56 * Leg_state_72 + 40 Leg_state_57 ^2
   - 40 Leg_state_57 * Leg_state_73 + 40 Leg_state_58 ^2
   - 40 Leg_state_58 * Leg_state_74 + 40 Leg_state_59 ^2
   - 40 Leg_state_59 * Leg_state_75 + 40 Leg_state_60 ^2
   - 40 Leg_state_60 * Leg_state_76 + 40 Leg_state_61 ^2
   - 40 Leg_state_61 * Leg_state_77 + 40 Leg_state_62 ^2
   - 40 Leg_state_62 * Leg_state_78 + 40 Leg_state_63 ^2
   - 40 Leg_state_63 * Leg_state_79 + 40 Leg_state_64 ^2
   - 40 Leg_state_64 * Leg_state_80 + 40 Leg_state_65 ^2
   - 40 Leg_state_65 * Leg_state_81 + 40 Leg_state_66 ^2
   - 40 Leg_state_66 * Leg_state_82 + 40 Leg_state_67 ^2
   - 40 Leg_state_67 * Leg_state_83 + 40 Leg_state_68 ^2
   - 40 Leg_state_68 * Leg_state_84 + 40 Leg_state_69 ^2
   - 40 Leg_state_69 * Leg_state_85 + 40 Leg_state_70 ^2
   - 40 Leg_state_70 * Leg_state_86 + 40 Leg_state_71 ^2
   - 40 Leg_state_71 * Leg_state_87 + 40 Leg_state_72 ^2
   - 40 Leg_state_72 * Leg_state_88 + 40 Leg_state_73 ^2
   - 40 Leg_state_73 * Leg_state_89 + 40 Leg_state_74 ^2
   - 40 Leg_state_74 * Leg_state_90 + 40 Leg_state_75 ^2
   - 40 Leg_state_75 * Leg_state_91 + 40 Leg_state_76 ^2
   - 40 Leg_state_76 * Leg_state_92 + 40 Leg_state_77 ^2
   - 40 Leg_state_77 * Leg_state_93 + 40 Leg_state_78 ^2
   - 40 Leg_state_78 * Leg_state_94 + 40 Leg_state_79 ^2
   - 40 Leg_state_79 * Leg_state_95 + 40 Leg_state_80 ^2
   - 40 Leg_state_80 * Leg_state_96 + 40 Leg_state_81 ^2
   - 40 Leg_state_81 * Leg_state_97 + 40 Leg_state_82 ^2
   - 40 Leg_state_82 * Leg_state_98 + 40 Leg_state_83 ^2
   - 40 Leg_state_83 * Leg_state_99 + 40 Leg_state_84 ^2
   - 40 Leg_state_84 * Leg_state_100 + 40 Leg_state_85 ^2
   - 40 Leg_state_85 * Leg_state_101 + 40 Leg_state_86 ^2
   - 40 Leg_state_86 * Leg_state_102 + 40 Leg_state_87 ^2
   - 40 Leg_state_87 * Leg_state_103 + 40 Leg_state_88 ^2
   - 40 Leg_state_88 * Leg_state_104 + 40 Leg_state_89 ^2
   - 40 Leg_state_89 * Leg_state_105 + 40 Leg_state_90 ^2
   - 40 Leg_state_90 * Leg_state_106 + 40 Leg_state_91 ^2
   - 40 Leg_state_91 * Leg_state_107 + 40 Leg_state_92 ^2
   - 40 Leg_state_92 * Leg_state_108 + 40 Leg_state_93 ^2
   - 40 Leg_state_93 * Leg_state_109 + 40 Leg_state_94 ^2
   - 40 Leg_state_94 * Leg_state_110 + 40 Leg_state_95 ^2
   - 40 Leg_state_95 * Leg_state_111 + 40 Leg_state_96 ^2
   - 40 Leg_state_96 * Leg_state_112 + 40 Leg_state_97 ^2
   - 40 Leg_state_97 * Leg_state_113 + 40 Leg_state_98 ^2
   - 40 Leg_state_98 * Leg_state_114 + 40 Leg_state_99 ^2
   - 40 Leg_state_99 * Leg_state_115 + 40 Leg_state_100 ^2
   - 40 Leg_state_100 * Leg_state_116 + 40 Leg_state_101 ^2
   - 40 Leg_state_101 * Leg_state_117 + 40 Leg_state_102 ^2
   - 40 Leg_state_102 * Leg_state_118 + 40 Leg_state_103 ^2
   - 40 Leg_state_103 * Leg_state_119 + 40 Leg_state_104 ^2
   - 40 Leg_state_104 * Leg_state_120 + 40 Leg_state_105 ^2
   - 40 Leg_state_105 * Leg_state_121 + 40 Leg_state_106 ^2
   - 40 Leg_state_106 * Leg_state_122 + 40 Leg_state_107 ^2
   - 40 Leg_state_107 * Leg_state_123 + 40 Leg_state_108 ^2
   - 40 Leg_state_108 * Leg_state_124 + 40 Leg_state_109 ^2
   - 40 Leg_state_109 * Leg_state_125 + 40 Leg_state_110 ^2
   - 40 Leg_state_110 * Leg_state_126 + 40 Leg_state_111 ^2
   - 40 Leg_state_111 * Leg_state_127 + 40 Leg_state_112 ^2
   - 40 Leg_state_112 * Leg_state_128 + 40 Leg_state_113 ^2
   - 40 Leg_state_113 * Leg_state_129 + 40 Leg_state_114 ^2
   - 40 Leg_state_114 * Leg_state_130 + 40 Leg_state_115 ^2
   - 40 Leg_state_115 * Leg_state_131 + 40 Leg_state_116 ^2
   - 40 Leg_state_116 * Leg_state_132 + 40 Leg_state_117 ^2
   - 40 Leg_state_117 * Leg_state_133 + 40 Leg_state_118 ^2
   - 40 Leg_state_118 * Leg_state_134 + 40 Leg_state_119 ^2
   - 40 Leg_state_119 * Leg_state_135 + 40 Leg_state_120 ^2
   - 40 Leg_state_120 * Leg_state_136 + 40 Leg_state_121 ^2
   - 40 Leg_state_121 * Leg_state_137 + 40 Leg_state_122 ^2
   - 40 Leg_state_122 * Leg_state_138 + 40 Leg_state_123 ^2
   - 40 Leg_state_123 * Leg_state_139 + 40 Leg_state_124 ^2
   - 40 Leg_state_124 * Leg_state_140 + 40 Leg_state_125 ^2
   - 40 Leg_state_125 * Leg_state_141 + 40 Leg_state_126 ^2
   - 40 Leg_state_126 * Leg_state_142 + 40 Leg_state_127 ^2
   - 40 Leg_state_127 * Leg_state_143 + 40 Leg_state_128 ^2
   - 40 Leg_state_128 * Leg_state_144 + 40 Leg_state_129 ^2
   - 40 Leg_state_129 * Leg_state_145 + 40 Leg_state_130 ^2
   - 40 Leg_state_130 * Leg_state_146 + 40 Leg_state_131 ^2
   - 40 Leg_state_131 * Leg_state_147 + 40 Leg_state_132 ^2
   - 40 Leg_state_132 * Leg_state_148 + 40 Leg_state_133 ^2
   - 40 Leg_state_133 * Leg_state_149 + 40 Leg_state_134 ^2
   - 40 Leg_state_134 * Leg_state_150 + 40 Leg_state_135 ^2
   - 40 Leg_state_135 * Leg_state_151 + 40 Leg_state_136 ^2
   - 40 Leg_state_136 * Leg_state_152 + 40 Leg_state_137 ^2
   - 40 Leg_state_137 * Leg_state_153 + 40 Leg_state_138 ^2
   - 40 Leg_state_138 * Leg_state_154 + 40 Leg_state_139 ^2
   - 40 Leg_state_139 * Leg_state_155 + 40 Leg_state_140 ^2
   - 40 Leg_state_140 * Leg_state_156 + 40 Leg_state_141 ^2
   - 40 Leg_state_141 * Leg_state_157 + 40 Leg_state_142 ^2
   - 40 Leg_state_142 * Leg_state_158 + 40 Leg_state_143 ^2
   - 40 Leg_state_143 * Leg_state_159 + 40 Leg_state_144 ^2
   - 40 Leg_state_144 * Leg_state_160 + 40 Leg_state_145 ^2
   - 40 Leg_state_145 * Leg_state_161 + 40 Leg_state_146 ^2
   - 40 Leg_state_146 * Leg_state_162 + 40 Leg_state_147 ^2
   - 40 Leg_state_147 * Leg_state_163 + 40 Leg_state_148 ^2
   - 40 Leg_state_148 * Leg_state_164 + 40 Leg_state_149 ^2
   - 40 Leg_state_149 * Leg_state_165 + 40 Leg_state_150 ^2
   - 40 Leg_state_150 * Leg_state_166 + 40 Leg_state_151 ^2
   - 40 Leg_state_151 * Leg_state_167 + 40 Leg_state_152 ^2
   - 40 Leg_state_152 * Leg_state_168 + 40 Leg_state_153 ^2
   - 40 Leg_state_153 * Leg_state_169 + 40 Leg_state_154 ^2
   - 40 Leg_state_154 * Leg_state_170 + 40 Leg_state_155 ^2
   - 40 Leg_state_155 * Leg_state_171 + 40 Leg_state_156 ^2
   - 40 Leg_state_156 * Leg_state_172 + 40 Leg_state_157 ^2
   - 40 Leg_state_157 * Leg_state_173 + 40 Leg_state_158 ^2
   - 40 Leg_state_158 * Leg_state_174 + 40 Leg_state_159 ^2
   - 40 Leg_state_159 * Leg_state_175 + 40 Leg_state_160 ^2
   - 40 Leg_state_160 * Leg_state_176 + 40 Leg_state_161 ^2
   - 40 Leg_state_161 * Leg_state_177 + 40 Leg_state_162 ^2
   - 40 Leg_state_162 * Leg_state_178 + 40 Leg_state_163 ^2
   - 40 Leg_state_163 * Leg_state_179 + 40 Leg_state_164 ^2
   - 40 Leg_state_164 * Leg_state_180 + 40 Leg_state_165 ^2
   - 40 Leg_state_165 * Leg_state_181 + 40 Leg_state_166 ^2
   - 40 Leg_state_166 * Leg_state_182 + 40 Leg_state_167 ^2
   - 40 Leg_state_167 * Leg_state_183 + 40 Leg_state_168 ^2
   - 40 Leg_state_168 * Leg_state_184 + 40 Leg_state_169 ^2
   - 40 Leg_state_169 * Leg_state_185 + 40 Leg_state_170 ^2
   - 40 Leg_state_170 * Leg_state_186 + 40 Leg_state_171 ^2
   - 40 Leg_state_171 * Leg_state_187 + 40 Leg_state_172 ^2
   - 40 Leg_state_172 * Leg_state_188 + 40 Leg_state_173 ^2
   - 40 Leg_state_173 * Leg_state_189 + 40 Leg_state_174 ^2
   - 40 Leg_state_174 * Leg_state_190 + 40 Leg_state_175 ^2
   - 40 Leg_state_175 * Leg_state_191 + 40 Leg_state_176 ^2
   - 40 Leg_state_176 * Leg_state_192 + 40 Leg_state_177 ^2
   - 40 Leg_state_177 * Leg_state_193 + 40 Leg_state_178 ^2
   - 40 Leg_state_178 * Leg_state_194 + 40 Leg_state_179 ^2
   - 40 Leg_state_179 * Leg_state_195 + 40 Leg_state_180 ^2
   - 40 Leg_state_180 * Leg_state_196 + 40 Leg_state_181 ^2
   - 40 Leg_state_181 * Leg_state_197 + 40 Leg_state_182 ^2
   - 40 Leg_state_182 * Leg_state_198 + 40 Leg_state_183 ^2
   - 40 Leg_state_183 * Leg_state_199 + 40 Leg_state_184 ^2
   - 40 Leg_state_184 * Leg_state_200 + 40 Leg_state_185 ^2
   - 40 Leg_state_185 * Leg_state_201 + 40 Leg_state_186 ^2
   - 40 Leg_state_186 * Leg_state_202 + 40 Leg_state_187 ^2
   - 40 Leg_state_187 * Leg_state_203 + 40 Leg_state_188 ^2
   - 40 Leg_state_188 * Leg_state_204 + 40 Leg_state_189 ^2
   - 40 Leg_state_189 * Leg_state_205 + 40 Leg_state_190 ^2
   - 40 Leg_state_190 * Leg_state_206 + 40 Leg_state_191 ^2
   - 40 Leg_state_191 * Leg_state_207 + 40 Leg_state_192 ^2
   - 40 Leg_state_192 * Leg_state_208 + 20 Leg_state_193 ^2
   + 20 Leg_state_194 ^2 + 20 Leg_state_195 ^2 + 20 Leg_state_196 ^2
   + 20 Leg_state_197 ^2 + 20 Leg_state_198 ^2 + 20 Leg_state_199 ^2
   + 20 Leg_state_200 ^2 + 20 Leg_state_201 ^2 + 20 Leg_state_202 ^2
   + 20 Leg_state_203 ^2 + 20 Leg_state_204 ^2 + 20 Leg_state_205 ^2
   + 20 Leg_state_206 ^2 + 20 Leg_state_207 ^2 + 20 Leg_state_208 ^2 ] / 2 
Subject To
Bounds
 COM_state_1 = 0
 COM_state_2 = 0
 COM_state_3 = 0
 COM_state_4 = 0
 -10 <= COM_state_5 <= 10
 -10 <= COM_state_6 <= 10
 -10 <= COM_state_7 <= 10
 -10 <= COM_state_8 <= 10
 -10 <= COM_state_9 <= 10
 -10 <= COM_state_10 <= 10
 -10 <= COM_state_11 <= 10
 -10 <= COM_state_12 <= 10
 -10 <= COM_state_13 <= 10
 -10 <= COM_state_14 <= 10
 -10 <= COM_state_15 <= 10
 -10 <= COM_state_16 <= 10
 -10 <= COM_state_17 <= 10
 -10 <= COM_state_18 <= 10
 -10 <= COM_state_19 <= 10
 -10 <= COM_state_20 <= 10
 -10 <= COM_state_21 <= 10
 -10 <= COM_state_22 <= 10
 -10 <= COM_state_23 <= 10
 -10 <= COM_state_24 <= 10
 -10 <= COM_state_25 <= 10
 -10 <= COM_state_26 <= 10
 -10 <= COM_state_27 <= 10
 -10 <= COM_state_28 <= 10
 -10 <= COM_state_29 <= 10
 -10 <= COM_state_30 <= 10
 -10 <= COM_state_31 <= 10
 -10 <= COM_state_32 <= 10
 -10 <= COM_state_33 <= 10
 -10 <= COM_state_34 <= 10
 -10 <= COM_state_35 <= 10
 -10 <= COM_state_36 <= 10
 -10 <= COM_state_37 <= 10
 -10 <= COM_state_38 <= 10
 -10 <= COM_state_39 <= 10
 -10 <= COM_state_40 <= 10
 -10 <= COM_state_41 <= 10
 -10 <= COM_state_42 <= 10
 -10 <= COM_state_43 <= 10
 -10 <= COM_state_44 <= 10
 -10 <= COM_state_45 <= 10
 -10 <= COM_state_46 <= 10
 -10 <= COM_state_47 <= 10
 -10 <= COM_state_48 <= 10
 -10 <= COM_state_49 <= 10
 -10 <= COM_state_50 <= 10
 -10 <= COM_state_51 <= 10
 -10 <= COM_state_52 <= 10
 T_1 = 1
 T_2 = 1
 T_3 = 1
 T_4 = 1
 Leg_state_1 = 0.4239989705688516
 Leg_state_2 = 0.2649997602952768
 Leg_state_3 = 0
 Leg_state_4 = 0
 Leg_state_5 = -0.4239989705688514
 Leg_state_6 = 0.2649997602952769
 Leg_state_7 = 0
 Leg_state_8 = 0
 Leg_state_9 = -0.4239989705688514
 Leg_state_10 = -0.2649997602952769
 Leg_state_11 = 0
 Leg_state_12 = 0
 Leg_state_13 = 0.4239989705688516
 Leg_state_14 = -0.2649997602952768
 Leg_state_15 = 0
 Leg_state_16 = 0
 -20 <= Leg_state_17 <= 20
 -20 <= Leg_state_18 <= 20
 -20 <= Leg_state_19 <= 20
 Leg_state_20 = 0
 -20 <= Leg_state_21 <= 20
 -20 <= Leg_state_22 <= 20
 -20 <= Leg_state_23 <= 20
 Leg_state_24 = 0
 -20 <= Leg_state_25 <= 20
 -20 <= Leg_state_26 <= 20
 -20 <= Leg_state_27 <= 20
 Leg_state_28 = 0
 -20 <= Leg_state_29 <= 20
 -20 <= Leg_state_30 <= 20
 -20 <= Leg_state_31 <= 20
 Leg_state_32 = 0
 -20 <= Leg_state_33 <= 20
 -20 <= Leg_state_34 <= 20
 -20 <= Leg_state_35 <= 20
 Leg_state_36 = 0
 -20 <= Leg_state_37 <= 20
 -20 <= Leg_state_38 <= 20
 -20 <= Leg_state_39 <= 20
 Leg_state_40 = 0
 -20 <= Leg_state_41 <= 20
 -20 <= Leg_state_42 <= 20
 -20 <= Leg_state_43 <= 20
 Leg_state_44 = 0
 -20 <= Leg_state_45 <= 20
 -20 <= Leg_state_46 <= 20
 -20 <= Leg_state_47 <= 20
 Leg_state_48 = 0
 -20 <= Leg_state_49 <= 20
 -20 <= Leg_state_50 <= 20
 -20 <= Leg_state_51 <= 20
 Leg_state_52 = 0
 -20 <= Leg_state_53 <= 20
 -20 <= Leg_state_54 <= 20
 -20 <= Leg_state_55 <= 20
 Leg_state_56 = 0
 -20 <= Leg_state_57 <= 20
 -20 <= Leg_state_58 <= 20
 -20 <= Leg_state_59 <= 20
 Leg_state_60 = 0
 -20 <= Leg_state_61 <= 20
 -20 <= Leg_state_62 <= 20
 -20 <= Leg_state_63 <= 20
 Leg_state_64 = 0
 -20 <= Leg_state_65 <= 20
 -20 <= Leg_state_66 <= 20
 -20 <= Leg_state_67 <= 20
 Leg_state_68 = 0
 -20 <= Leg_state_69 <= 20
 -20 <= Leg_state_70 <= 20
 -20 <= Leg_state_71 <= 20
 Leg_state_72 = 0
 -20 <= Leg_state_73 <= 20
 -20 <= Leg_state_74 <= 20
 -20 <= Leg_state_75 <= 20
 Leg_state_76 = 0
 -20 <= Leg_state_77 <= 20
 -20 <= Leg_state_78 <= 20
 -20 <= Leg_state_79 <= 20
 Leg_state_80 = 0
 -20 <= Leg_state_81 <= 20
 -20 <= Leg_state_82 <= 20
 -20 <= Leg_state_83 <= 20
 Leg_state_84 = 0
 -20 <= Leg_state_85 <= 20
 -20 <= Leg_state_86 <= 20
 -20 <= Leg_state_87 <= 20
 Leg_state_88 = 0
 -20 <= Leg_state_89 <= 20
 -20 <= Leg_state_90 <= 20
 -20 <= Leg_state_91 <= 20
 Leg_state_92 = 0
 -20 <= Leg_state_93 <= 20
 -20 <= Leg_state_94 <= 20
 -20 <= Leg_state_95 <= 20
 Leg_state_96 = 0
 -20 <= Leg_state_97 <= 20
 -20 <= Leg_state_98 <= 20
 -20 <= Leg_state_99 <= 20
 Leg_state_100 = 0
 -20 <= Leg_state_101 <= 20
 -20 <= Leg_state_102 <= 20
 -20 <= Leg_state_103 <= 20
 Leg_state_104 = 0
 -20 <= Leg_state_105 <= 20
 -20 <= Leg_state_106 <= 20
 -20 <= Leg_state_107 <= 20
 Leg_state_108 = 0
 -20 <= Leg_state_109 <= 20
 -20 <= Leg_state_110 <= 20
 -20 <= Leg_state_111 <= 20
 Leg_state_112 = 0
 -20 <= Leg_state_113 <= 20
 -20 <= Leg_state_114 <= 20
 -20 <= Leg_state_115 <= 20
 Leg_state_116 = 0
 -20 <= Leg_state_117 <= 20
 -20 <= Leg_state_118 <= 20
 -20 <= Leg_state_119 <= 20
 Leg_state_120 = 0
 -20 <= Leg_state_121 <= 20
 -20 <= Leg_state_122 <= 20
 -20 <= Leg_state_123 <= 20
 Leg_state_124 = 0
 -20 <= Leg_state_125 <= 20
 -20 <= Leg_state_126 <= 20
 -20 <= Leg_state_127 <= 20
 Leg_state_128 = 0
 -20 <= Leg_state_129 <= 20
 -20 <= Leg_state_130 <= 20
 -20 <= Leg_state_131 <= 20
 Leg_state_132 = 0
 -20 <= Leg_state_133 <= 20
 -20 <= Leg_state_134 <= 20
 -20 <= Leg_state_135 <= 20
 Leg_state_136 = 0
 -20 <= Leg_state_137 <= 20
 -20 <= Leg_state_138 <= 20
 -20 <= Leg_state_139 <= 20
 Leg_state_140 = 0
 -20 <= Leg_state_141 <= 20
 -20 <= Leg_state_142 <= 20
 -20 <= Leg_state_143 <= 20
 Leg_state_144 = 0
 -20 <= Leg_state_145 <= 20
 -20 <= Leg_state_146 <= 20
 -20 <= Leg_state_147 <= 20
 Leg_state_148 = 0
 -20 <= Leg_state_149 <= 20
 -20 <= Leg_state_150 <= 20
 -20 <= Leg_state_151 <= 20
 Leg_state_152 = 0
 -20 <= Leg_state_153 <= 20
 -20 <= Leg_state_154 <= 20
 -20 <= Leg_state_155 <= 20
 Leg_state_156 = 0
 -20 <= Leg_state_157 <= 20
 -20 <= Leg_state_158 <= 20
 -20 <= Leg_state_159 <= 20
 Leg_state_160 = 0
 -20 <= Leg_state_161 <= 20
 -20 <= Leg_state_162 <= 20
 -20 <= Leg_state_163 <= 20
 Leg_state_164 = 0
 -20 <= Leg_state_165 <= 20
 -20 <= Leg_state_166 <= 20
 -20 <= Leg_state_167 <= 20
 Leg_state_168 = 0
 -20 <= Leg_state_169 <= 20
 -20 <= Leg_state_170 <= 20
 -20 <= Leg_state_171 <= 20
 Leg_state_172 = 0
 -20 <= Leg_state_173 <= 20
 -20 <= Leg_state_174 <= 20
 -20 <= Leg_state_175 <= 20
 Leg_state_176 = 0
 -20 <= Leg_state_177 <= 20
 -20 <= Leg_state_178 <= 20
 -20 <= Leg_state_179 <= 20
 Leg_state_180 = 0
 -20 <= Leg_state_181 <= 20
 -20 <= Leg_state_182 <= 20
 -20 <= Leg_state_183 <= 20
 Leg_state_184 = 0
 -20 <= Leg_state_185 <= 20
 -20 <= Leg_state_186 <= 20
 -20 <= Leg_state_187 <= 20
 Leg_state_188 = 0
 -20 <= Leg_state_189 <= 20
 -20 <= Leg_state_190 <= 20
 -20 <= Leg_state_191 <= 20
 Leg_state_192 = 0
 -20 <= Leg_state_193 <= 20
 -20 <= Leg_state_194 <= 20
 -20 <= Leg_state_195 <= 20
 Leg_state_196 = 0
 -20 <= Leg_state_197 <= 20
 -20 <= Leg_state_198 <= 20
 -20 <= Leg_state_199 <= 20
 Leg_state_200 = 0
 -20 <= Leg_state_201 <= 20
 -20 <= Leg_state_202 <= 20
 -20 <= Leg_state_203 <= 20
 Leg_state_204 = 0
 -20 <= Leg_state_205 <= 20
 -20 <= Leg_state_206 <= 20
 -20 <= Leg_state_207 <= 20
 Leg_state_208 = 0
 Constant = 1
Binaries
 T_1 T_2 T_3 T_4 T_5 T_6 T_7 T_8 T_9 T_10 T_11 T_12 T_13 T_14 T_15 T_16
 T_17 T_18 T_19 T_20 T_21 T_22 T_23 T_24 T_25 T_26 T_27 T_28 T_29 T_30 T_31
 T_32 T_33 T_34 T_35 T_36 T_37 T_38 T_39 T_40 T_41 T_42 T_43 T_44 T_45 T_46
 T_47 T_48 T_49 T_50 T_51 T_52
End
